
Gurobi 9.1.2 (win64) logging started Tue Dec  7 14:04:26 2021

Gurobi Optimizer version 9.1.2 build v9.1.2rc0 (win64)
Thread count: 8 physical cores, 8 logical processors, using up to 8 threads
Optimize a model with 1 rows, 248 columns and 247 nonzeros
Model fingerprint: 0xe38a60dd
Variable types: 1 continuous, 247 integer (247 binary)
Coefficient statistics:
  Matrix range     [1e+00, 1e+01]
  Objective range  [1e+00, 1e+00]
  Bounds range     [7e+01, 7e+01]
  RHS range        [1e+01, 1e+01]
Presolve time: 0.00s
Presolved: 1 rows, 248 columns, 247 nonzeros
Variable types: 1 continuous, 247 integer (247 binary)

Root simplex log...

Iteration    Objective       Primal Inf.    Dual Inf.      Time
       0   -7.4234789e+01   1.046906e-01   0.000000e+00     14s
       5   -7.4234789e+01   0.000000e+00   0.000000e+00     14s

Root relaxation: objective -7.423479e+01, 5 iterations, 0.00 seconds

    Nodes    |    Current Node    |     Objective Bounds      |     Work
 Expl Unexpl |  Obj  Depth IntInf | Incumbent    BestBd   Gap | It/Node Time

     0     0  -74.23479    0    2          -  -74.23479      -     -   14s
H    0     0                       0.8459940  -74.23479  8875%     -   15s
H    0     0                       0.8089552  -74.23479  9277%     -   16s
     0     0  -63.40621    0    3    0.80896  -63.40621  7938%     -   16s
H    0     0                       0.6334685  -63.40621      -     -   18s
     0     0  -43.43981    0    9    0.63347  -43.43981  6957%     -   19s
     0     0  -41.21044    0    9    0.63347  -41.21044  6606%     -   20s
     0     0  -39.48149    0   10    0.63347  -39.48149  6333%     -   21s
     0     0  -39.06200    0   10    0.63347  -39.06200  6266%     -   22s
     0     0  -37.97977    0   11    0.63347  -37.97977  6096%     -   22s
     0     0  -37.23102    0   10    0.63347  -37.23102  5977%     -   22s
     0     0  -37.21977    0   11    0.63347  -37.21977  5976%     -   22s
     0     0  -35.42004    0   12    0.63347  -35.42004  5691%     -   22s
     0     0  -35.35381    0   12    0.63347  -35.35381  5681%     -   22s
     0     0  -34.99043    0   13    0.63347  -34.99043  5624%     -   22s
     0     2  -34.99043    0   13    0.63347  -34.99043  5624%     -   22s

Cutting planes:
  Cover: 3
  MIR: 12
  Inf proof: 1
  Lazy constraints: 51

Explored 608 nodes (2392 simplex iterations) in 24.80 seconds
Thread count was 8 (of 8 available processors)

Solution count 3: 0.633468 0.808955 0.845994 

Optimal solution found (tolerance 1.00e-04)
Best objective 6.334684555796e-01, best bound 6.334684555796e-01, gap 0.0000%

User-callback calls 1438, time in user-callback 28.24 sec
